p idrup
i 17 11 0
i -11 16 0
i 4 -16 0
i 3 -12 0
i -18 12 0
i -9 8 0
i -7 -4 0
i 6 14 0
i -13 15 0
i 7 -10 2 0
i 18 18 0
i -14 7 0
i 9 -3 0
i 13 -5 0
i 5 -2 0
i -8 10 0
i -6 -15 -13 0
q 1 0
l 7 0
s SATISFIABLE
m 1 2 3 -4 5 -6 7 8 9 10 -11 12 13 14 15 -16 17 18 0
